Version identifier: 12.10.0.0 | 2019-11-26 | 843d4de
CPXPARAM_WorkMem                                 28672
Tried aggregator 2 times.
MIP Presolve eliminated 24 rows and 0 columns.
MIP Presolve added 48 rows and 0 columns.
Aggregator did 60 substitutions.
Reduced MIP has 126 rows, 110 columns, and 502 nonzeros.
Reduced MIP has 110 binaries, 0 generals, 0 SOSs, and 0 indicators.
Presolve time = 0,00 sec. (1,12 ticks)
Found incumbent of value 87,000000 after 0,00 sec. (1,27 ticks)
Probing time = 0,00 sec. (0,75 ticks)
Tried aggregator 1 time.
Detecting symmetries...
Reduced MIP has 126 rows, 110 columns, and 502 nonzeros.
Reduced MIP has 110 binaries, 0 generals, 0 SOSs, and 0 indicators.
Presolve time = 0,00 sec. (0,45 ticks)
Probing time = 0,00 sec. (0,74 ticks)
Clique table members: 411.
MIP emphasis: balance optimality and feasibility.
MIP search method: dynamic search.
Parallel mode: deterministic, using up to 16 threads.
Root relaxation solution time = 0,00 sec. (0,29 ticks)

        Nodes                                         Cuts/
   Node  Left     Objective  IInf  Best Integer    Best Bound    ItCnt     Gap

*     0+    0                           87,0000        0,0000           100,00%
*     0+    0                           84,0000        0,0000           100,00%
      0     0       50,0000   110       84,0000       50,0000       47   40,48%
*     0+    0                           81,0000       50,0000            38,27%
      0     0       56,2280   110       81,0000     Cuts: 131      108   30,58%
      0     0       59,9549   110       81,0000      Cuts: 92      170   25,98%
      0     0       60,1922   110       81,0000      Cuts: 17      189   25,69%
      0     0       60,2820   110       81,0000       Cuts: 2      200   25,58%
      0     0       60,2906   110       81,0000       Cuts: 3      209   25,57%
Detecting symmetries...
      0     0       60,2907   110       81,0000   Impl Bds: 1      211   25,57%
      0     0        cutoff             81,0000       81,0000      211    0,00%
Elapsed time = 0,04 sec. (32,39 ticks, tree = 0,01 MB, solutions = 3)

Clique cuts applied:  31
Implied bound cuts applied:  74
Zero-half cuts applied:  1
Gomory fractional cuts applied:  17

Root node processing (before b&c):
  Real time             =    0,04 sec. (32,40 ticks)
Parallel b&c, 16 threads:
  Real time             =    0,00 sec. (0,00 ticks)
  Sync time (average)   =    0,00 sec.
  Wait time (average)   =    0,00 sec.
                          ------------
Total (root+branch&cut) =    0,04 sec. (32,40 ticks)
